p cnf 200 1110
-101 -86 0
-101 -17 0
-101 72 0
-101 78 0
-101 -74 0
-101 -54 0
-101 96 0
-101 43 0
-101 -3 0
-101 -42 0
101 86 17 -72 -78 74 54 -96 -43 3 42 0
-102 20 0
-102 46 0
-102 70 0
-102 -67 0
-102 -85 0
-102 -45 0
-102 13 0
-102 -84 0
-102 92 0
-102 -52 0
102 -20 -46 -70 67 85 45 -13 84 -92 52 0
-103 72 0
-103 -18 0
-103 61 0
-103 -62 0
-103 -15 0
-103 40 0
-103 57 0
-103 26 0
-103 -52 0
-103 -32 0
103 -72 18 -61 62 15 -40 -57 -26 52 32 0
-104 -28 0
-104 95 0
-104 -94 0
-104 -92 0
-104 -3 0
-104 32 0
-104 -69 0
-104 -97 0
-104 -30 0
-104 -48 0
104 28 -95 94 92 3 -32 69 97 30 48 0
-105 18 0
-105 51 0
-105 35 0
-105 19 0
-105 73 0
-105 -6 0
-105 68 0
-105 -46 0
-105 -25 0
-105 -78 0
105 -18 -51 -35 -19 -73 6 -68 46 25 78 0
-106 -57 0
-106 -51 0
-106 25 0
-106 7 0
-106 91 0
-106 -30 0
-106 90 0
-106 73 0
-106 89 0
-106 8 0
106 57 51 -25 -7 -91 30 -90 -73 -89 -8 0
-107 -71 0
-107 1 0
-107 -75 0
-107 19 0
-107 11 0
-107 -62 0
-107 -89 0
-107 -95 0
-107 -82 0
-107 -56 0
107 71 -1 75 -19 -11 62 89 95 82 56 0
-108 44 0
-108 -79 0
-108 -47 0
-108 -32 0
-108 -69 0
-108 37 0
-108 30 0
-108 9 0
-108 68 0
-108 -89 0
108 -44 79 47 32 69 -37 -30 -9 -68 89 0
-109 27 0
-109 31 0
-109 -1 0
-109 -74 0
-109 69 0
-109 -16 0
-109 94 0
-109 43 0
-109 68 0
-109 -77 0
109 -27 -31 1 74 -69 16 -94 -43 -68 77 0
-110 26 0
-110 -3 0
-110 -63 0
-110 45 0
-110 18 0
-110 -49 0
-110 14 0
-110 23 0
-110 -76 0
-110 -52 0
110 -26 3 63 -45 -18 49 -14 -23 76 52 0
101 102 103 104 105 106 107 108 109 110 0
-111 -3 0
-111 -66 0
-111 -28 0
-111 -80 0
-111 6 0
-111 -63 0
-111 -36 0
-111 -53 0
-111 -97 0
-111 10 0
111 3 66 28 80 -6 63 36 53 97 -10 0
-112 40 0
-112 -42 0
-112 -26 0
-112 -85 0
-112 -96 0
-112 -87 0
-112 -62 0
-112 -2 0
-112 -34 0
-112 22 0
112 -40 42 26 85 96 87 62 2 34 -22 0
-113 31 0
-113 -91 0
-113 6 0
-113 83 0
-113 38 0
-113 -63 0
-113 20 0
-113 -24 0
-113 74 0
-113 79 0
113 -31 91 -6 -83 -38 63 -20 24 -74 -79 0
-114 5 0
-114 -62 0
-114 -34 0
-114 -97 0
-114 -37 0
-114 -49 0
-114 -30 0
-114 -76 0
-114 38 0
-114 7 0
114 -5 62 34 97 37 49 30 76 -38 -7 0
-115 -50 0
-115 -46 0
-115 -19 0
-115 36 0
-115 -5 0
-115 51 0
-115 77 0
-115 71 0
-115 -91 0
-115 32 0
115 50 46 19 -36 5 -51 -77 -71 91 -32 0
-116 38 0
-116 60 0
-116 58 0
-116 -98 0
-116 -100 0
-116 -15 0
-116 64 0
-116 74 0
-116 -33 0
-116 67 0
116 -38 -60 -58 98 100 15 -64 -74 33 -67 0
-117 -59 0
-117 55 0
-117 -62 0
-117 -84 0
-117 -24 0
-117 67 0
-117 -11 0
-117 -31 0
-117 60 0
-117 -44 0
117 59 -55 62 84 24 -67 11 31 -60 44 0
-118 -44 0
-118 29 0
-118 1 0
-118 -69 0
-118 58 0
-118 48 0
-118 17 0
-118 62 0
-118 2 0
-118 100 0
118 44 -29 -1 69 -58 -48 -17 -62 -2 -100 0
-119 -9 0
-119 86 0
-119 53 0
-119 -66 0
-119 -95 0
-119 -12 0
-119 90 0
-119 44 0
-119 -56 0
-119 -21 0
119 9 -86 -53 66 95 12 -90 -44 56 21 0
-120 -87 0
-120 -27 0
-120 67 0
-120 -51 0
-120 31 0
-120 -59 0
-120 3 0
-120 -77 0
-120 24 0
-120 26 0
120 87 27 -67 51 -31 59 -3 77 -24 -26 0
111 112 113 114 115 116 117 118 119 120 0
-121 42 0
-121 29 0
-121 14 0
-121 -40 0
-121 55 0
-121 -98 0
-121 -77 0
-121 -3 0
-121 74 0
-121 -84 0
121 -42 -29 -14 40 -55 98 77 3 -74 84 0
-122 34 0
-122 94 0
-122 43 0
-122 -50 0
-122 -99 0
-122 -68 0
-122 86 0
-122 -80 0
-122 -56 0
-122 9 0
122 -34 -94 -43 50 99 68 -86 80 56 -9 0
-123 -75 0
-123 91 0
-123 86 0
-123 41 0
-123 40 0
-123 -10 0
-123 80 0
-123 16 0
-123 31 0
-123 90 0
123 75 -91 -86 -41 -40 10 -80 -16 -31 -90 0
-124 -17 0
-124 4 0
-124 93 0
-124 66 0
-124 -23 0
-124 -70 0
-124 -8 0
-124 95 0
-124 -80 0
-124 83 0
124 17 -4 -93 -66 23 70 8 -95 80 -83 0
-125 97 0
-125 33 0
-125 -68 0
-125 -84 0
-125 -53 0
-125 -32 0
-125 49 0
-125 -45 0
-125 -16 0
-125 31 0
125 -97 -33 68 84 53 32 -49 45 16 -31 0
-126 41 0
-126 22 0
-126 -37 0
-126 -51 0
-126 19 0
-126 89 0
-126 -55 0
-126 97 0
-126 -14 0
-126 -53 0
126 -41 -22 37 51 -19 -89 55 -97 14 53 0
-127 38 0
-127 -35 0
-127 84 0
-127 -93 0
-127 -98 0
-127 87 0
-127 -12 0
-127 85 0
-127 18 0
-127 19 0
127 -38 35 -84 93 98 -87 12 -85 -18 -19 0
-128 24 0
-128 -52 0
-128 -78 0
-128 -17 0
-128 -59 0
-128 -67 0
-128 -34 0
-128 -100 0
-128 -50 0
-128 48 0
128 -24 52 78 17 59 67 34 100 50 -48 0
-129 -40 0
-129 1 0
-129 -3 0
-129 -71 0
-129 45 0
-129 91 0
-129 -5 0
-129 -46 0
-129 -43 0
-129 -95 0
129 40 -1 3 71 -45 -91 5 46 43 95 0
-130 -25 0
-130 -39 0
-130 -72 0
-130 83 0
-130 4 0
-130 12 0
-130 -9 0
-130 2 0
-130 -53 0
-130 -97 0
130 25 39 72 -83 -4 -12 9 -2 53 97 0
121 122 123 124 125 126 127 128 129 130 0
-131 -68 0
-131 44 0
-131 -71 0
-131 -97 0
-131 75 0
-131 29 0
-131 36 0
-131 53 0
-131 57 0
-131 94 0
131 68 -44 71 97 -75 -29 -36 -53 -57 -94 0
-132 -27 0
-132 75 0
-132 -37 0
-132 70 0
-132 39 0
-132 -32 0
-132 95 0
-132 -98 0
-132 11 0
-132 41 0
132 27 -75 37 -70 -39 32 -95 98 -11 -41 0
-133 19 0
-133 63 0
-133 -18 0
-133 92 0
-133 4 0
-133 -90 0
-133 -61 0
-133 80 0
-133 -84 0
-133 -70 0
133 -19 -63 18 -92 -4 90 61 -80 84 70 0
-134 33 0
-134 -96 0
-134 10 0
-134 -38 0
-134 86 0
-134 31 0
-134 54 0
-134 98 0
-134 -56 0
-134 93 0
134 -33 96 -10 38 -86 -31 -54 -98 56 -93 0
-135 39 0
-135 -14 0
-135 17 0
-135 -9 0
-135 -5 0
-135 87 0
-135 20 0
-135 56 0
-135 -59 0
-135 -28 0
135 -39 14 -17 9 5 -87 -20 -56 59 28 0
-136 -15 0
-136 56 0
-136 -81 0
-136 -25 0
-136 66 0
-136 -34 0
-136 46 0
-136 -31 0
-136 -2 0
-136 -50 0
136 15 -56 81 25 -66 34 -46 31 2 50 0
-137 -8 0
-137 45 0
-137 -22 0
-137 -90 0
-137 6 0
-137 -23 0
-137 16 0
-137 -7 0
-137 100 0
-137 -19 0
137 8 -45 22 90 -6 23 -16 7 -100 19 0
-138 -68 0
-138 -6 0
-138 86 0
-138 -18 0
-138 7 0
-138 20 0
-138 -19 0
-138 -43 0
-138 -29 0
-138 66 0
138 68 6 -86 18 -7 -20 19 43 29 -66 0
-139 -8 0
-139 -52 0
-139 32 0
-139 88 0
-139 -86 0
-139 -95 0
-139 34 0
-139 -1 0
-139 35 0
-139 -30 0
139 8 52 -32 -88 86 95 -34 1 -35 30 0
-140 -98 0
-140 -73 0
-140 57 0
-140 -34 0
-140 51 0
-140 26 0
-140 4 0
-140 11 0
-140 -95 0
-140 -12 0
140 98 73 -57 34 -51 -26 -4 -11 95 12 0
131 132 133 134 135 136 137 138 139 140 0
-141 67 0
-141 -72 0
-141 -60 0
-141 51 0
-141 49 0
-141 -81 0
-141 15 0
-141 62 0
-141 33 0
-141 69 0
141 -67 72 60 -51 -49 81 -15 -62 -33 -69 0
-142 -92 0
-142 -29 0
-142 21 0
-142 -81 0
-142 67 0
-142 -24 0
-142 -3 0
-142 -55 0
-142 -15 0
-142 -77 0
142 92 29 -21 81 -67 24 3 55 15 77 0
-143 -67 0
-143 -78 0
-143 54 0
-143 69 0
-143 -76 0
-143 -11 0
-143 26 0
-143 9 0
-143 -64 0
-143 -5 0
143 67 78 -54 -69 76 11 -26 -9 64 5 0
-144 -43 0
-144 57 0
-144 -3 0
-144 -54 0
-144 -6 0
-144 -60 0
-144 -63 0
-144 91 0
-144 -59 0
-144 -49 0
144 43 -57 3 54 6 60 63 -91 59 49 0
-145 -70 0
-145 -4 0
-145 -92 0
-145 91 0
-145 42 0
-145 28 0
-145 -71 0
-145 -78 0
-145 87 0
-145 53 0
145 70 4 92 -91 -42 -28 71 78 -87 -53 0
-146 -67 0
-146 -46 0
-146 -12 0
-146 45 0
-146 7 0
-146 79 0
-146 -62 0
-146 -5 0
-146 13 0
-146 3 0
146 67 46 12 -45 -7 -79 62 5 -13 -3 0
-147 -79 0
-147 -50 0
-147 -47 0
-147 81 0
-147 -24 0
-147 -75 0
-147 -89 0
-147 37 0
-147 71 0
-147 12 0
147 79 50 47 -81 24 75 89 -37 -71 -12 0
-148 17 0
-148 89 0
-148 61 0
-148 25 0
-148 -40 0
-148 58 0
-148 49 0
-148 -67 0
-148 -79 0
-148 -76 0
148 -17 -89 -61 -25 40 -58 -49 67 79 76 0
-149 10 0
-149 29 0
-149 63 0
-149 41 0
-149 72 0
-149 -100 0
-149 -76 0
-149 -25 0
-149 -71 0
-149 -22 0
149 -10 -29 -63 -41 -72 100 76 25 71 22 0
-150 3 0
-150 59 0
-150 -5 0
-150 -78 0
-150 -7 0
-150 -14 0
-150 92 0
-150 -15 0
-150 -39 0
-150 -20 0
150 -3 -59 5 78 7 14 -92 15 39 20 0
141 142 143 144 145 146 147 148 149 150 0
-151 -15 0
-151 31 0
-151 71 0
-151 27 0
-151 -20 0
-151 26 0
-151 81 0
-151 96 0
-151 64 0
-151 80 0
151 15 -31 -71 -27 20 -26 -81 -96 -64 -80 0
-152 32 0
-152 82 0
-152 69 0
-152 -68 0
-152 58 0
-152 -5 0
-152 57 0
-152 -15 0
-152 -78 0
-152 85 0
152 -32 -82 -69 68 -58 5 -57 15 78 -85 0
-153 38 0
-153 -44 0
-153 34 0
-153 -3 0
-153 67 0
-153 13 0
-153 -85 0
-153 -87 0
-153 89 0
-153 -4 0
153 -38 44 -34 3 -67 -13 85 87 -89 4 0
-154 42 0
-154 -68 0
-154 55 0
-154 62 0
-154 -23 0
-154 -74 0
-154 -89 0
-154 19 0
-154 -26 0
-154 -43 0
154 -42 68 -55 -62 23 74 89 -19 26 43 0
-155 -94 0
-155 -99 0
-155 -58 0
-155 50 0
-155 49 0
-155 -43 0
-155 82 0
-155 87 0
-155 98 0
-155 -77 0
155 94 99 58 -50 -49 43 -82 -87 -98 77 0
-156 -4 0
-156 64 0
-156 49 0
-156 -59 0
-156 75 0
-156 40 0
-156 18 0
-156 -84 0
-156 -41 0
-156 -56 0
156 4 -64 -49 59 -75 -40 -18 84 41 56 0
-157 -44 0
-157 -72 0
-157 -38 0
-157 -100 0
-157 62 0
-157 28 0
-157 -23 0
-157 -34 0
-157 -92 0
-157 19 0
157 44 72 38 100 -62 -28 23 34 92 -19 0
-158 63 0
-158 -11 0
-158 -78 0
-158 -98 0
-158 -56 0
-158 76 0
-158 74 0
-158 -73 0
-158 86 0
-158 57 0
158 -63 11 78 98 56 -76 -74 73 -86 -57 0
-159 26 0
-159 -71 0
-159 70 0
-159 41 0
-159 3 0
-159 9 0
-159 80 0
-159 23 0
-159 -55 0
-159 14 0
159 -26 71 -70 -41 -3 -9 -80 -23 55 -14 0
-160 30 0
-160 98 0
-160 -84 0
-160 -40 0
-160 66 0
-160 54 0
-160 86 0
-160 -89 0
-160 -43 0
-160 -71 0
160 -30 -98 84 40 -66 -54 -86 89 43 71 0
151 152 153 154 155 156 157 158 159 160 0
-161 15 0
-161 -35 0
-161 93 0
-161 28 0
-161 12 0
-161 -30 0
-161 -47 0
-161 61 0
-161 59 0
-161 -19 0
161 -15 35 -93 -28 -12 30 47 -61 -59 19 0
-162 2 0
-162 -26 0
-162 38 0
-162 10 0
-162 64 0
-162 37 0
-162 81 0
-162 -74 0
-162 11 0
-162 -9 0
162 -2 26 -38 -10 -64 -37 -81 74 -11 9 0
-163 -3 0
-163 -44 0
-163 -76 0
-163 -96 0
-163 -29 0
-163 -20 0
-163 79 0
-163 -40 0
-163 84 0
-163 -54 0
163 3 44 76 96 29 20 -79 40 -84 54 0
-164 -64 0
-164 29 0
-164 26 0
-164 -22 0
-164 -81 0
-164 -92 0
-164 74 0
-164 -33 0
-164 -97 0
-164 23 0
164 64 -29 -26 22 81 92 -74 33 97 -23 0
-165 46 0
-165 25 0
-165 81 0
-165 2 0
-165 -56 0
-165 -4 0
-165 10 0
-165 98 0
-165 -94 0
-165 17 0
165 -46 -25 -81 -2 56 4 -10 -98 94 -17 0
-166 -41 0
-166 -81 0
-166 -35 0
-166 40 0
-166 17 0
-166 76 0
-166 49 0
-166 -34 0
-166 37 0
-166 36 0
166 41 81 35 -40 -17 -76 -49 34 -37 -36 0
-167 -49 0
-167 -94 0
-167 -47 0
-167 -29 0
-167 -76 0
-167 17 0
-167 33 0
-167 45 0
-167 77 0
-167 -58 0
167 49 94 47 29 76 -17 -33 -45 -77 58 0
-168 50 0
-168 61 0
-168 20 0
-168 -26 0
-168 29 0
-168 78 0
-168 92 0
-168 57 0
-168 -5 0
-168 -93 0
168 -50 -61 -20 26 -29 -78 -92 -57 5 93 0
-169 81 0
-169 -3 0
-169 -11 0
-169 -75 0
-169 98 0
-169 -87 0
-169 35 0
-169 85 0
-169 -59 0
-169 51 0
169 -81 3 11 75 -98 87 -35 -85 59 -51 0
-170 -47 0
-170 88 0
-170 -28 0
-170 5 0
-170 49 0
-170 -42 0
-170 40 0
-170 50 0
-170 -89 0
-170 -19 0
170 47 -88 28 -5 -49 42 -40 -50 89 19 0
161 162 163 164 165 166 167 168 169 170 0
-171 52 0
-171 -93 0
-171 29 0
-171 -4 0
-171 -65 0
-171 -60 0
-171 -49 0
-171 -42 0
-171 -80 0
-171 44 0
171 -52 93 -29 4 65 60 49 42 80 -44 0
-172 82 0
-172 -91 0
-172 78 0
-172 -23 0
-172 73 0
-172 -27 0
-172 -96 0
-172 72 0
-172 -18 0
-172 -52 0
172 -82 91 -78 23 -73 27 96 -72 18 52 0
-173 40 0
-173 39 0
-173 63 0
-173 -95 0
-173 -44 0
-173 33 0
-173 -35 0
-173 52 0
-173 13 0
-173 90 0
173 -40 -39 -63 95 44 -33 35 -52 -13 -90 0
-174 3 0
-174 69 0
-174 -80 0
-174 -2 0
-174 52 0
-174 7 0
-174 8 0
-174 -96 0
-174 58 0
-174 36 0
174 -3 -69 80 2 -52 -7 -8 96 -58 -36 0
-175 10 0
-175 -33 0
-175 -55 0
-175 59 0
-175 91 0
-175 -49 0
-175 37 0
-175 -99 0
-175 -81 0
-175 39 0
175 -10 33 55 -59 -91 49 -37 99 81 -39 0
-176 -15 0
-176 -24 0
-176 -94 0
-176 -65 0
-176 52 0
-176 75 0
-176 -78 0
-176 2 0
-176 -14 0
-176 61 0
176 15 24 94 65 -52 -75 78 -2 14 -61 0
-177 49 0
-177 74 0
-177 -56 0
-177 -40 0
-177 10 0
-177 9 0
-177 11 0
-177 -72 0
-177 25 0
-177 -68 0
177 -49 -74 56 40 -10 -9 -11 72 -25 68 0
-178 -24 0
-178 67 0
-178 14 0
-178 13 0
-178 -40 0
-178 69 0
-178 -79 0
-178 70 0
-178 -26 0
-178 -12 0
178 24 -67 -14 -13 40 -69 79 -70 26 12 0
-179 20 0
-179 -14 0
-179 -8 0
-179 45 0
-179 30 0
-179 -43 0
-179 -42 0
-179 40 0
-179 15 0
-179 98 0
179 -20 14 8 -45 -30 43 42 -40 -15 -98 0
-180 -13 0
-180 -63 0
-180 72 0
-180 -57 0
-180 77 0
-180 -96 0
-180 -47 0
-180 -12 0
-180 -55 0
-180 -65 0
180 13 63 -72 57 -77 96 47 12 55 65 0
171 172 173 174 175 176 177 178 179 180 0
-181 -37 0
-181 97 0
-181 -70 0
-181 11 0
-181 -43 0
-181 2 0
-181 -38 0
-181 1 0
-181 83 0
-181 99 0
181 37 -97 70 -11 43 -2 38 -1 -83 -99 0
-182 69 0
-182 18 0
-182 35 0
-182 7 0
-182 98 0
-182 56 0
-182 87 0
-182 62 0
-182 91 0
-182 -92 0
182 -69 -18 -35 -7 -98 -56 -87 -62 -91 92 0
-183 20 0
-183 45 0
-183 16 0
-183 -62 0
-183 12 0
-183 44 0
-183 94 0
-183 8 0
-183 -72 0
-183 2 0
183 -20 -45 -16 62 -12 -44 -94 -8 72 -2 0
-184 -80 0
-184 -88 0
-184 -30 0
-184 -3 0
-184 77 0
-184 -29 0
-184 -34 0
-184 -89 0
-184 -100 0
-184 -53 0
184 80 88 30 3 -77 29 34 89 100 53 0
-185 13 0
-185 -2 0
-185 -42 0
-185 33 0
-185 -48 0
-185 -83 0
-185 -79 0
-185 55 0
-185 -85 0
-185 92 0
185 -13 2 42 -33 48 83 79 -55 85 -92 0
-186 -72 0
-186 74 0
-186 -26 0
-186 -42 0
-186 62 0
-186 65 0
-186 -47 0
-186 70 0
-186 -81 0
-186 -16 0
186 72 -74 26 42 -62 -65 47 -70 81 16 0
-187 -40 0
-187 -36 0
-187 65 0
-187 17 0
-187 45 0
-187 -77 0
-187 44 0
-187 71 0
-187 -95 0
-187 -91 0
187 40 36 -65 -17 -45 77 -44 -71 95 91 0
-188 -2 0
-188 22 0
-188 -57 0
-188 -65 0
-188 27 0
-188 29 0
-188 -28 0
-188 83 0
-188 4 0
-188 78 0
188 2 -22 57 65 -27 -29 28 -83 -4 -78 0
-189 -81 0
-189 -14 0
-189 94 0
-189 17 0
-189 -66 0
-189 -49 0
-189 -36 0
-189 61 0
-189 -45 0
-189 -24 0
189 81 14 -94 -17 66 49 36 -61 45 24 0
-190 8 0
-190 -44 0
-190 -7 0
-190 73 0
-190 -6 0
-190 -71 0
-190 -25 0
-190 -54 0
-190 20 0
-190 31 0
190 -8 44 7 -73 6 71 25 54 -20 -31 0
181 182 183 184 185 186 187 188 189 190 0
-191 75 0
-191 -18 0
-191 -26 0
-191 58 0
-191 63 0
-191 -72 0
-191 -59 0
-191 70 0
-191 42 0
-191 -21 0
191 -75 18 26 -58 -63 72 59 -70 -42 21 0
-192 -23 0
-192 26 0
-192 9 0
-192 -29 0
-192 77 0
-192 -14 0
-192 -5 0
-192 96 0
-192 -84 0
-192 -7 0
192 23 -26 -9 29 -77 14 5 -96 84 7 0
-193 -73 0
-193 36 0
-193 -14 0
-193 -92 0
-193 20 0
-193 98 0
-193 -77 0
-193 88 0
-193 75 0
-193 -4 0
193 73 -36 14 92 -20 -98 77 -88 -75 4 0
-194 -44 0
-194 -66 0
-194 48 0
-194 54 0
-194 -50 0
-194 13 0
-194 -39 0
-194 16 0
-194 70 0
-194 -75 0
194 44 66 -48 -54 50 -13 39 -16 -70 75 0
-195 -89 0
-195 -17 0
-195 -49 0
-195 -65 0
-195 -92 0
-195 99 0
-195 39 0
-195 21 0
-195 8 0
-195 15 0
195 89 17 49 65 92 -99 -39 -21 -8 -15 0
-196 10 0
-196 15 0
-196 -76 0
-196 -81 0
-196 69 0
-196 -56 0
-196 -32 0
-196 -30 0
-196 29 0
-196 73 0
196 -10 -15 76 81 -69 56 32 30 -29 -73 0
-197 -4 0
-197 19 0
-197 46 0
-197 -92 0
-197 84 0
-197 5 0
-197 79 0
-197 -89 0
-197 -66 0
-197 -43 0
197 4 -19 -46 92 -84 -5 -79 89 66 43 0
-198 -97 0
-198 -77 0
-198 14 0
-198 -64 0
-198 16 0
-198 86 0
-198 4 0
-198 -55 0
-198 73 0
-198 34 0
198 97 77 -14 64 -16 -86 -4 55 -73 -34 0
-199 20 0
-199 -54 0
-199 -28 0
-199 -71 0
-199 37 0
-199 -69 0
-199 40 0
-199 -16 0
-199 3 0
-199 -77 0
199 -20 54 28 71 -37 69 -40 16 -3 77 0
-200 41 0
-200 98 0
-200 -4 0
-200 -2 0
-200 57 0
-200 7 0
-200 42 0
-200 31 0
-200 -99 0
-200 -81 0
200 -41 -98 4 2 -57 -7 -42 -31 99 81 0
191 192 193 194 195 196 197 198 199 200 0
